letting presetvals be [
    [ 6, 1,-1,-2,-1, 3,-1],
    [ 6,-2,-1, 1,-1,-2, 2],
    [ 1,-2, 1,-2, 1,-2,-1],
    [ 2, 2, 4,-2, 4,-1,-1],
    [-2, 5,-2,-2,-2, 1,-2],
    [-1,-1, 9,-2,-1,-1,-1],
    [ 9,-2,-1, 1,-1,-2,-1],
    [-1,-2, 1,-2, 2,-2, 2],
    [-1, 7,-1,-2,-1,-1,-1]
]
letting op be [1,1,1,1,3,3,3,3,2,1,3,1,1,1,1,3,3,2,1,3]
